&CONTROL
   calculation      = 'scf'
   tstress          = .true.
   tprnfor          = .true.
   outdir           = './'
   disk_io          = 'none'
/
&SYSTEM
   ecutwfc          = 110
   input_dft        = 'SCAN'
   ntyp             = 2
   nat              = 864
   ibrav            = 0
/
&ELECTRONS
   electron_maxstep = 1000
   mixing_beta      = 0.5
/
&IONS
/
&CELL
/

ATOMIC_SPECIES
O 15.999 O_ONCV_PBE_sr.upf
H 1.008 H_ONCV_PBE_sr.upf

K_POINTS gamma

CELL_PARAMETERS angstrom
20.02676208460019 0.00000000000000 0.00000000000000
0.00000000000000 20.02676208460019 0.00000000000000
0.00000000000000 0.00000000000000 20.02676208460019

ATOMIC_POSITIONS angstrom
O 2.7973381280 1.8362337888 14.5994094259 
H 3.4915257821 2.3848669361 14.2769585295 
H 2.8016238551 1.1145073341 13.9461564734 
O 19.3110056077 5.4088879841 18.8111576528 
H 5.7064255884 8.5876357960 15.1483429746 
H 4.9410227683 15.6015686273 7.1720841715 
O 5.1118510489 7.8539353402 9.8903366161 
H 13.4564620869 18.6374455185 10.2776942483 
H 18.2110557270 17.6123356477 13.9630190071 
O 2.5970504804 6.3781031619 15.8416294244 
H 2.9182797442 6.0912398218 16.7280339411 
H 9.2446537797 4.9572844991 14.8165996607 
O 15.5335377165 15.3734237537 9.7382934383 
H 4.3293053204 9.8255300139 11.8786336093 
H 15.8572502989 14.6327940383 9.2181183199 
O 9.7367313509 11.8864440465 18.2480451565 
H 9.7853763560 7.3709499190 1.2394623134 
H 8.8242119365 11.6917238388 18.2159622837 
O 13.1292648480 19.3638762596 10.8689042918 
H 5.9625879022 7.5020451037 9.5991474953 
H 5.3157435136 8.2584759344 10.7745782424 
O 7.0855285058 0.0057164390 11.8831596576 
H 6.2101387083 19.8679298345 11.4841664766 
H 7.5714778878 0.6685013291 11.2964756623 
O 6.1527820617 17.9265154913 14.6270663843 
H 6.1626953090 18.7303296411 15.1341640270 
H 19.1043895033 6.1377019099 6.2512736777 
O 13.6636789942 6.0616402675 12.7376815690 
H 11.7767574706 4.1055863612 9.4826518203 
H 14.1490676269 5.3363510518 12.2960914650 
O 1.1835736285 2.4621502110 1.0771434041 
H 9.7465244375 16.7507843428 11.9557566701 
H 0.5311597974 3.1442016473 1.1941838070 
O 14.4780071941 0.6444211504 13.0979229653 
H 14.7488691513 0.1076472508 13.8254752051 
H 12.7959193931 10.1506044161 7.1475914415 
O 15.5101464584 7.6663246330 12.0193015862 
H 0.3235083094 5.8106849118 7.0145937145 
H 15.5060209454 8.5098117985 12.5619667584 
O 3.0267046341 10.3810523674 17.8818357851 
H 2.7015701517 9.6944548561 17.2567805136 
H 4.9919307975 12.3840089505 0.9325862300 
O 4.6922703564 15.3397387398 6.2685167198 
H 5.4637613122 15.0653720993 5.7455178280 
H 15.3104596137 9.4256556554 2.6598343795 
O 8.2294972096 1.0088741748 0.1069907735 
H 8.6713476615 0.7628874588 19.2546502992 
H 11.1328169625 1.9787221983 11.9779062690 
O 16.0816902216 11.0332038479 10.0768859049 
H 15.6457276377 11.4622772256 10.8502994298 
H 2.0487377613 7.9828876613 5.4305168871 
O 4.6473303023 3.5117728386 14.1138806059 
H 4.3328901108 3.8627418441 13.2672091852 
H 17.7890918498 0.5527866978 7.7066585319 
O 16.9589625347 3.9752922470 8.5247918166 
H 16.9309050410 3.3793158342 9.3664966002 
H 16.7055038337 3.3200566451 7.7867856070 
O 13.1747055712 4.5260682579 15.2383031899 
H 13.4787518731 0.1608673697 10.4414330551 
H 13.2762612817 5.2012505148 14.5053437244 
O 12.2437415089 17.7633174070 13.8457222616 
H 11.4385655393 18.2050076448 13.5769831412 
H 12.4555445447 18.1983587598 14.6718462243 
O 7.8742424770 7.5445218660 16.6703969198 
H 19.6952590918 17.4763339064 2.9727525371 
H 8.1697974318 8.4099183092 16.2905092698 
O 7.3321580809 17.0150775220 0.1736867003 
H 9.9400630663 3.6005715017 11.9639476158 
H 19.6871482532 15.9689395510 17.4801590179 
O 17.3961066975 8.0440293659 16.1191002131 
H 18.1862025152 8.6317948064 16.0626047173 
H 17.5249388579 7.7415050979 15.2030961421 
O 3.3572663691 11.6462230353 1.2998650306 
H 3.2950231925 11.1730307008 2.1838182715 
H 3.0342747502 10.9629299398 0.6414051200 
O 0.6597997010 0.4756716477 2.7206556560 
H 1.4236123962 0.5666372064 3.3258243526 
H 19.9035574443 0.3600391261 3.2599963857 
O 10.2083415712 6.3166610559 17.8090585316 
H 5.8417263930 11.7252886921 3.4599235515 
H 10.0985949150 5.3563978407 17.6022822131 
O 14.3350561663 8.7123424435 0.1008858153 
H 14.8177011326 9.4684528460 19.6873685476 
H 14.7746235673 8.6147119783 0.9896544912 
O 2.2538718853 12.9989106536 17.9654875703 
H 18.3627384230 2.9517845172 13.1802329575 
H 3.0587274267 13.4213751998 18.4104221435 
O 3.3375400084 0.6964006113 12.1021523010 
H 3.7735426458 19.8694919219 12.3045027051 
H 0.5962668009 18.0256679903 9.1682917359 
O 8.1752847647 17.7182772191 12.6111725129 
H 17.6350459959 8.1382953351 19.7126022678 
H 7.5441613843 17.5299255217 13.3632174827 
O 12.7089832189 4.2173957739 3.3745094113 
H 13.5675505362 4.5868895343 3.6825610656 
H 12.0518250478 4.9119038562 3.5561321166 
O 10.7139171800 6.6934245310 12.9782630619 
H 11.6536529641 6.4786575344 12.8879824184 
H 7.1340934039 14.0349751633 0.1462916919 
O 11.6806089858 15.8570300045 17.3476819867 
H 3.0400825112 17.8014483620 5.3055498917 
H 12.1318720159 16.6576799259 17.6875761928 
O 9.9746092309 14.4559977826 1.7078422171 
H 1.9123975677 6.1300516868 2.9757765782 
H 10.7803459499 14.6331344932 1.2416472332 
O 5.8643966877 1.1116715446 4.4585380161 
H 6.4095451784 1.4980458628 3.7683356876 
H 6.3514875951 0.3199435457 4.6990394020 
O 17.5091777962 2.4914293371 13.0885704674 
H 15.9104213522 4.5809215592 3.9006124512 
H 12.1022123812 10.0650701152 9.2177578382 
O 17.3453588823 19.6990842034 6.3908602094 
H 17.7072224464 18.7826795971 6.6049062425 
H 16.3615241682 19.4372943694 6.2691175227 
O 20.0155671246 11.2541591140 12.5913860719 
H 19.2999308083 1.6005969034 5.0740004685 
H 19.4323477592 11.3740192851 13.3236245740 
O 0.2098404131 14.0499151278 15.0862199586 
H 1.0288568780 13.5137185997 15.1270144730 
H 0.2798820108 14.8378280285 15.6803338826 
O 11.5168501523 11.3305211578 16.1207223809 
H 12.0555700524 10.5185761426 15.9600676954 
H 12.1211176447 12.0684672871 16.2388201969 
O 12.1504368243 19.3694436995 15.8125906194 
H 12.2720994040 2.7760496799 2.7845610538 
H 12.2561581014 0.1639957502 15.3569217017 
O 4.7288993043 5.4643420883 7.4857433193 
H 4.9340935086 6.3492646245 7.1138263206 
H 4.6355946197 4.9616303065 6.6156405870 
O 19.9926164552 16.1701884832 16.5562043224 
H 8.1937093858 14.2228862719 19.0821397706 
H 0.7215161737 16.7481207834 16.6882007113 
O 7.1709426461 7.1446675343 3.5421534367 
H 7.9515658054 7.4680196349 3.0931334040 
H 7.4921919367 7.0482787283 4.4283176321 
O 14.4322260160 17.7397459081 8.9842457923 
H 17.7632973803 1.6203212614 9.8728532528 
H 17.1232620908 2.6753751469 13.9654222186 
O 4.9469506899 6.6697729249 14.3661977814 
H 5.5303703229 5.9212927188 14.5226668736 
H 4.1571753003 6.4871088280 14.9648377536 
O 16.3279192614 2.6426313909 6.1793375483 
H 15.6640521250 2.0070820961 6.5034306391 
H 17.1045771218 2.2213684504 5.7985887475 
O 12.1649762536 8.6445318271 10.2044163258 
H 3.7620072308 13.9344608444 6.8964958985 
H 11.3841928802 8.0360386879 10.2405045511 
O 12.3638219744 1.8084266296 14.4265784691 
H 10.4922609773 13.5114155221 2.9434934377 
H 12.8674549873 2.5090929413 14.8479615701 
O 1.3082762706 16.3806697527 10.0519726128 
H 1.0289590145 16.0795273312 10.9735040702 
H 2.2283577904 16.1284326843 10.0792690896 
O 16.3427190386 12.7582490536 0.5226984904 
H 7.3283329693 16.0279383921 0.0440420541 
H 15.5805205004 13.3210411217 0.5863815912 
O 10.8595918474 17.7306938116 4.9349346326 
H 11.5153080916 17.8094790936 4.2006133472 
H 11.2793928342 17.9870363663 5.7695699692 
O 18.3513632221 5.6450635894 10.2550239536 
H 17.8169290491 5.4780003400 11.0470823941 
H 12.6579350023 18.4072378883 7.8165453754 
O 5.5995027056 10.6274215946 17.2711397020 
H 4.6540793211 10.5661196758 17.6130966646 
H 6.2099784942 10.5529821199 17.9842125928 
O 13.1313476313 9.7520117703 6.2779092712 
H 13.5663088770 8.9742924915 6.6216085621 
H 0.3022398880 1.9223508684 11.3440792758 
O 19.3830218442 9.9513982136 16.0985127017 
H 19.3425677847 10.6834564749 15.4556736656 
H 19.3399843324 10.4841701654 16.9311453621 
O 3.2056637801 16.7737350122 0.7200982789 
H 4.0576422927 16.9216526769 1.1169105455 
H 17.8479304768 6.1153920969 18.4905692454 
O 16.9177674851 17.7965818589 2.2124965948 
H 17.4978426488 17.8965354284 1.4471598630 
H 4.9764100569 4.7360488583 3.0668382653 
O 19.4111794716 12.9711535613 8.4949719678 
H 18.4610097445 12.8157859411 8.3054787450 
H 19.8610206016 13.7269635624 8.0117862790 
O 15.3161472141 9.8500027172 15.9476110494 
H 15.9247004336 9.1374505222 16.0427982496 
H 15.1433763376 10.2882082984 16.8522198928 
O 0.3945632612 7.3997083494 9.8845689086 
H 19.7367945964 6.6224897397 9.8855702467 
H 19.8876561952 8.0620935053 10.2685219913 
O 10.5603119148 14.0116039319 6.4219417441 
H 14.7640294102 13.1737242598 12.1062377604 
H 9.6917512432 14.4821126803 6.2546582005 
O 10.6459062960 16.7311180624 8.9036781284 
H 3.3200566451 11.7180990845 6.3441978537 
H 10.9089578160 17.6356467987 8.4739638944 
O 15.2671817808 10.2279878248 13.1821755534 
H 15.3421219245 11.1554472037 12.8975952642 
H 4.3283039823 1.4004234083 10.9877030445 
O 18.1998607670 0.1515196782 19.4619473135 
H 17.9448800321 0.5714696641 0.2653686164 
H 2.2009611799 12.8050315698 4.4994326643 
O 15.8641595318 14.6578475176 18.2610024716 
H 16.7807844324 14.8746171904 18.4318107254 
H 10.0804306418 18.4156291017 15.7422766577 
O 15.1246513151 11.1294524665 18.5804693804 
H 14.4683542948 11.7711900308 18.9862916873 
H 18.0404477408 17.0754982632 10.0590420599 
O 7.8775268660 13.6847070944 10.8308334171 
H 7.5094950591 12.7769340226 10.7095713726 
H 8.8052866463 13.5975105723 11.0499462210 
O 7.4699221773 11.9800491325 13.9550683826 
H 6.5406003095 12.1684208567 13.9959630307 
H 7.8301235201 12.8899650678 14.0003288649 
O 9.1951275970 10.9566615632 3.9444910869 
H 9.7180664086 11.7944010480 3.9279890350 
H 10.0534145397 11.4778780733 17.3526085702 
O 8.7770689385 10.4448576314 1.3960215260 
H 9.6432263987 10.7646049149 1.0178341482 
H 8.9935782634 10.5718873833 2.3530043576 
O 17.0151576291 8.1745237477 8.6742114885 
H 17.3374883648 7.3143743162 8.9602337046 
H 0.9252083708 8.9129905728 16.0450011934 
O 12.3212851317 10.7237302934 8.5634634941 
H 2.1137446310 6.2057127939 12.2806508314 
H 7.5240745419 17.9920030033 7.2803087939 
O 6.1329555673 9.4029052537 14.8294968955 
H 5.8958787577 17.2238164632 15.2141909683 
H 5.9019869201 9.9772727903 15.5689250051 
O 3.7742636092 5.4090682250 10.0263583841 
H 4.0175086615 5.1023183101 9.1530713967 
H 4.1176224452 6.3286170328 10.0172061539 
O 3.8829087935 18.3927184858 5.4324995366 
H 0.4223343722 8.8117352637 2.8321045870 
H 9.2323373210 16.6156036987 6.4746521820 
O 5.5178135431 18.0969432366 1.8442665230 
H 0.7880711121 1.5577316218 19.6354992338 
H 5.8679414246 18.0721501051 2.7724248359 
O 3.0457901384 9.2179581058 8.2491835167 
H 2.3520430730 9.6840209131 8.7257002938 
H 3.6619935810 8.7756470384 8.8988516788 
O 9.0826573012 15.9577445910 4.0498919358 
H 9.2930985172 15.6438851756 3.1779867949 
H 9.9638548597 16.3313037842 4.3833575513 
O 13.2971491945 0.0818225408 1.3030252536 
H 13.0592112342 0.1426442178 0.3690631851 
H 2.4301073916 19.1230143920 8.3416871308 
O 13.0258867021 2.6019770638 18.9645426236 
H 12.2048495369 2.7274247015 19.4067135037 
H 13.6080446492 3.1844354123 19.5528487866 
O 14.3501363182 4.3694990319 0.8588336733 
H 14.2202227126 5.0975118872 0.1139815153 
H 13.5325037026 4.4538717806 1.3865288408 
O 19.2847505226 14.8249307937 4.4888385072 
H 4.1961473793 12.9612803676 14.1213305614 
H 0.0812089208 11.2700203096 8.4091172388 
O 3.8805256088 4.7939862810 4.8775779860 
H 15.6203737569 18.4164101454 15.5487580557 
H 3.5052641409 5.6868193883 4.7507485017 
O 15.9079380337 7.4570449692 4.9350748199 
H 3.1129398717 9.8789614152 18.7145685793 
H 15.4912011415 6.5761077587 4.8311960050 
O 5.3034470817 18.0955814168 9.5422915178 
H 5.0760031447 18.2651680381 10.5106855984 
H 4.7536123287 18.6933001580 8.9832845077 
O 2.5625643961 6.0927218022 2.2185046234 
H 2.8101752825 5.1687270532 2.0747124717 
H 0.9170975322 12.0206834328 4.0251388579 
O 10.8279896169 13.0609335358 3.7541166866 
H 11.5142867267 12.4410451690 3.3854039698 
H 13.9930791770 15.0498513587 11.8226988628 
O 15.9329114060 15.3399189807 2.9610969615 
H 16.3120180123 16.0865567247 2.4645534224 
H 16.5926530294 14.6084014420 3.0615111466 
O 10.3524741779 3.4779676642 17.4626756546 
H 11.2717626379 3.4958315360 17.7752333305 
H 10.2719465676 2.7588867448 16.8280075374 
O 10.2013522312 4.7765429713 14.6600504615 
H 8.9954407523 8.4918277662 10.0212515598 
H 10.5638165982 4.2453130802 15.3641713896 
O 12.4643763468 13.2066282299 9.7642280952 
H 12.5352310310 13.8276981757 8.9988853554 
H 12.5516930295 12.3130541325 9.3924512839 
O 6.4740714059 8.6971621578 12.0944019440 
H 6.1027952636 8.7540181354 13.0610336696 
H 7.2463233786 9.2920170720 11.9545750912 
O 0.2072870010 13.5634650768 19.9167751072 
H 0.7382685602 14.2096485822 0.5109988560 
H 11.6260961394 14.9649579142 7.1847611119 
O 19.3569670267 4.3112812345 13.2581971423 
H 19.6215005271 4.1185637030 12.3215655064 
H 13.8708157945 17.1514397451 12.7248243877 
O 11.9203693815 5.9131418266 6.9179645875 
H 11.2975170539 6.3057865241 6.2781095389 
H 12.4953777745 6.7116889380 7.0744937599 
O 10.6784297576 2.9625188617 0.4592456974 
H 11.4253478763 10.9102195020 8.0976009545 
H 9.8226061067 2.6463563686 0.1322871775 
O 7.4388206158 18.7931936472 7.8419793633 
H 10.0719793482 6.1400049875 2.8869378615 
H 6.7302537464 18.6131530561 8.4686968560 
O 17.2386562939 1.4357446086 1.9916234385 
H 17.9486650901 1.3940969542 2.7264433902 
H 11.5875045689 9.2951813004 14.3769521526 
O 7.2999550475 3.6652979967 17.1785159274 
H 6.4182968734 3.6343967028 17.6313810984 
H 10.5707258311 16.8428073146 9.8977465180 
O 8.8623428915 10.2623136950 12.4977209057 
H 9.4330655574 9.8858506213 13.1725426809 
H 8.2537896720 10.9174491631 12.9494044977 
O 18.1095000164 17.8372762394 9.4008024437 
H 17.1558256060 15.2687038147 12.0554298650 
H 10.8774757460 18.0875506852 2.0832038188 
O 16.8274467881 12.8315470028 8.2348443551 
H 16.0906622110 13.3038982134 7.8288017538 
H 16.4864511100 12.1025328094 8.7879634971 
O 0.8873858280 9.2108886588 5.9982755922 
H 0.6947664276 9.5999285391 6.8730045066 
H 0.5736826213 9.9774530311 5.5247227760 
O 17.8333710208 13.4140053513 2.8501286728 
H 7.0895338582 14.4988350267 12.3953641246 
H 17.5094781976 0.4483471335 18.7839613099 
O 9.6572251054 17.6720354255 16.1827853166 
H 18.4335931072 14.0027320763 3.4327472354 
H 2.9308565508 15.9318499876 1.1668592929 
O 2.6362628805 4.1424155766 12.3102704125 
H 2.9561703781 4.7010020247 11.5892869507 
H 1.8910790794 3.7179283275 11.9518113980 
O 0.2151655292 5.7010183626 3.5512055331 
H 19.8715747052 6.6081105245 3.3285479923 
H 0.0602050530 5.6109379868 4.5004139757 
O 0.7366824406 16.2239202859 12.8015068597 
H 14.5610581765 16.7623397845 9.1141193444 
H 3.0662574892 14.9857256665 5.1303958305 
O 11.3939258866 18.6445149655 19.3833022188 
H 12.0582736652 18.9493423112 18.7557035486 
H 10.6033093730 18.9311179577 18.9572929358 
O 10.6132626738 16.3786670765 11.6630054620 
H 18.1190127284 0.4169091224 4.9090600560 
H 10.3797706546 15.4455200972 11.5171906072 
O 11.0583374344 11.2347732083 0.3718869585 
H 10.5049579444 11.4458152272 19.6194577973 
H 13.7041530804 9.3182120768 15.8609953034 
O 14.8617800359 3.3930541929 11.9171250461 
H 15.7212285308 3.7731821641 11.8894881144 
H 15.1174416807 2.5880784910 12.3588353106 
O 6.4456934840 11.6908827148 7.5834939451 
H 6.6556540577 12.6255717548 7.4054960836 
H 5.5220391899 11.6095139804 7.2137999170 
O 15.5776967269 12.6509256356 12.2716788420 
H 15.2683233063 10.2255245331 14.1582599107 
H 16.3281395558 13.2481036542 12.4645365609 
O 5.3487476176 15.4383104628 8.9707277279 
H 5.2799356630 16.4140944186 9.1003409321 
H 16.3898420098 18.6051623780 2.2959280857 
O 7.9488021122 14.5416922975 19.9572091399 
H 1.7621287610 3.4209915261 15.0468072908 
H 19.0597298238 15.8052207710 4.2468751677 
O 9.4720376364 7.8113984976 2.0095453879 
H 7.5913644626 10.3870804228 10.1088285904 
H 2.4491528424 12.1823995366 14.9949780306 
O 19.8502462036 5.4687079224 6.2739639991 
H 9.1674906654 0.7012090369 17.0416129818 
H 13.0272885755 1.3905522173 13.8130986661 
O 1.5984700613 7.0532653921 12.2774265227 
H 1.2337646996 7.0905952766 11.3506680805 
H 1.7292748578 17.7635377014 1.0999238459 
O 0.5579515997 10.4341833672 8.3337765598 
H 16.9616260940 13.2111743049 1.1452724460 
H 0.1570190271 9.9689817108 9.1338857586 
O 18.7508971257 1.0164583096 4.4732977398 
H 12.6568735839 0.6881736175 1.7433977305 
H 14.7889026487 16.8595096342 5.4078065389 
O 10.7549319888 1.4541391896 5.3436207665 
H 10.4240097721 0.5420303238 5.5144490470 
H 12.2099563613 18.7272655465 1.9436172871 
O 7.2855558055 11.1684846258 19.2805649293 
H 9.8294352326 6.6663683754 11.3503276255 
H 6.7381042372 11.7967041256 19.7946919656 
O 3.4525537031 2.2386715729 8.4592442242 
H 4.0960135689 2.2011414207 9.1594198803 
H 2.5930651547 2.7122043624 8.7694587689 
O 18.8787279481 7.8437817719 13.5389523200 
H 17.3468008092 2.1661746941 11.3895199989 
H 19.6049383948 7.1806155722 13.3939785892 
O 10.4693703882 5.7525271947 3.7300845721 
H 9.8823259112 5.0289002003 3.9798383220 
H 4.3234575059 10.6513535753 4.4485046083 
O 13.3676834506 14.3235808317 11.8773118430 
H 13.0954997271 14.0821181612 10.9314478698 
H 18.4305290126 10.9665147302 4.8966634903 
O 8.9331374955 3.6599708780 11.7257893611 
H 7.7616520206 18.4918509582 12.2246960582 
H 8.8560544882 4.6176105874 11.4334186614 
O 11.3770032726 2.8678924108 12.2962516791 
H 10.0994760925 6.3043445972 18.7835006944 
H 11.7016571128 2.7326116329 13.2175227885 
O 9.0769096205 18.7324324511 1.4305376505 
H 9.3707623005 16.9276807323 15.5246258074 
H 8.6376426209 17.9164420299 1.2092659616 
O 12.9271747918 11.8977791939 2.8663904036 
H 13.6294732846 11.7196211184 3.4993762729 
H 13.2769421916 12.7052582411 2.4179110935 
O 17.8948732072 17.1084422869 6.4653797911 
H 18.0570098730 16.9566794838 7.3877924260 
H 17.0136355952 16.7984680633 6.2759666753 
O 2.3224835722 10.6878823893 14.1834335506 
H 4.0538772615 4.9102416350 18.1437457796 
H 3.1106568208 10.4266332779 13.7018500028 
O 16.3260167190 15.1048648741 13.7558221266 
H 17.4677424254 12.3645028843 15.0708594321 
H 15.9626110942 14.3962178978 14.3706637493 
O 3.7442635196 19.8433369707 1.1598739582 
H 3.5087487975 0.1022736700 2.0373225069 
H 4.4969092923 19.1633683176 1.3392356422 
O 19.1507915110 4.3666352049 1.2545845215 
H 19.3639763934 4.8258288328 0.4760541588 
H 19.4931690356 4.7853146931 2.0515014544 
O 1.3830201521 17.1667602181 5.8322937881 
H 1.2135997529 16.4454763548 6.5160074457 
H 0.5026376828 17.3005790423 5.4942420441 
O 16.2785733196 19.1320264349 15.4135974384 
H 1.9887335767 12.0686074745 9.9364382224 
H 17.1016732413 18.6044213878 15.2391643407 
O 11.9671318710 9.2300342434 2.9475989239 
H 12.2078134977 10.1528273867 2.8759431692 
H 11.2917293197 9.0619896827 3.5852710554 
O 14.7049905156 16.8668594558 15.9282451705 
H 14.1458833717 16.2068174311 15.3886641196 
H 15.2935369997 16.3132596715 16.4621386209 
O 4.4114951520 10.7785034877 11.5952549258 
H 5.3450026130 10.8586305628 11.3227307474 
H 17.3746580353 8.2408123302 7.7509577296 
O 16.8992427301 3.4511518298 17.2262797550 
H 17.9182043850 3.2933209178 17.1656387194 
H 9.3448877239 12.5746637256 7.7744691483 
O 16.5272656512 10.5678019239 2.2474032411 
H 17.2385761869 9.9806973666 1.8912112560 
H 16.3261969598 11.1471761510 1.5226847882 
O 3.7930286853 8.6264676877 12.8166671186 
H 0.9658566898 1.7123262091 1.6882980999 
H 4.1609603583 7.8951103631 13.4250000437 
O 6.1202385733 3.9686033085 10.7041641469 
H 2.3697267039 12.0075458769 17.9756611654 
H 3.9526219524 16.1510228719 16.0411360283 
O 5.8701043149 12.8136430775 0.9589915158 
H 14.4572394418 14.5699100053 2.0839047555 
H 11.3019629951 10.2948772102 0.2778212570 
O 5.9033086864 13.6063824279 16.7482209173 
H 6.8156879135 13.9924783741 16.8090021402 
H 10.4574744915 5.9187092665 13.6179779231 
O 17.8347128139 8.8650865579 0.3337279661 
H 14.2868317232 6.7915356384 12.4011718856 
H 18.3971644270 9.5167774229 19.8924225645 
O 4.5671631737 10.5755923343 3.5316594133 
H 4.6424637991 9.6170313939 3.2519856808 
H 5.4212244695 7.6237277101 2.9427925010 
O 9.1686922711 1.5972263994 15.4926630951 
H 8.5388706303 2.1312279943 15.0897847223 
H 0.2176047888 19.8868350979 11.9233934226 
O 15.4301595707 16.1178986074 5.4663647913 
H 16.2786133731 1.4550303805 17.1987629839 
H 15.5919357548 15.8048402625 4.5183980080 
O 8.9301134544 15.5833643006 14.9387428826 
H 15.3777295075 17.9615022446 8.9262282625 
H 8.1395970746 15.2681430654 14.4853970693 
O 12.0214845033 15.8995668472 0.5994029919 
H 11.9357499348 16.7688484822 1.0854785425 
H 11.6894808414 16.1889936128 19.7740644006 
O 18.9183208567 9.6238204662 10.6122012554 
H 7.9344429238 3.2497827370 17.7211210193 
H 18.0465559032 9.9571058408 10.2965194047 
O 19.5212665828 8.4708397195 2.8636467372 
H 19.2361655978 8.3606524745 1.9462768411 
H 15.5691853530 1.5478484148 9.8786209602 
O 2.5656284907 19.5680090455 18.5866776766 
H 3.0579864365 19.5465804101 19.4423411134 
H 1.7349624583 0.0907452644 18.7482135396 
O 7.6856704852 3.7727015218 7.2655290434 
H 7.1120639656 3.0221785859 7.4978995639 
H 7.9950839594 3.5591962112 6.3239708240 
O 2.1014882526 9.3708223808 2.8759431692 
H 2.0072823637 10.2990027232 3.3080606147 
H 2.4192929401 8.8023026588 3.6163325634 
O 6.0691302765 7.0782587912 18.7930734867 
H 5.7978878108 7.7138281127 19.4173276876 
H 6.6883577602 7.5208302065 18.1892065295 
O 13.7236791734 14.2381466646 1.5378410417 
H 3.7201512981 18.8423793749 6.2687169874 
H 13.2804669017 15.0615870413 1.1827965901 
O 9.8183604331 19.7503527143 13.8057688712 
H 10.2896702520 0.0007926592 12.9919813939 
H 9.2270702826 19.0583079237 13.5042058877 
O 0.8815860777 0.3613969406 11.3761821754 
H 0.9625082152 13.3869091422 19.3058787566 
H 5.2075389181 4.2712477371 10.4975079889 
O 16.5940148492 18.6967647878 11.5056351655 
H 15.7600804492 18.2306619270 11.6601816885 
H 16.3728793423 19.6032160933 11.7419509581 
O 14.7379345392 13.6343598145 6.7597331402 
H 4.7717365484 14.4335077288 19.8085304582 
H 19.4108590435 4.4948865893 18.3806022948 
O 14.6690224509 11.2818961795 4.7421169673 
H 14.7093763765 11.9813909256 5.4093686264 
H 14.2962042479 10.6042506308 5.3202895886 
O 6.8666760498 11.0609208867 10.1487018737 
H 6.5538780528 11.1863084441 9.1762223336 
H 5.0633862846 2.5807286693 18.9421927571 
O 0.4000025298 1.2450938389 18.7594084996 
H 7.4090608473 11.6559159882 3.5415125803 
H 11.2838187487 1.7978204564 6.0722344246 
O 0.9134146106 18.1007883749 1.6171910785 
H 7.7355170960 10.7414940314 0.0187821389 
H 9.1830514595 8.6771554225 1.7144991128 
O 18.7109637621 17.5111804724 0.0675064099 
H 19.5820878593 17.6166414015 0.4314665757 
H 18.6069247331 18.2904217851 19.5572546743 
O 7.6125527768 14.0887870730 8.1384154957 
H 15.4529299991 4.6745867255 8.4104390050 
H 7.8333678556 14.1062504095 9.0698602002 
O 4.6993998837 7.9360050113 2.3747734480 
H 3.9914738708 7.2129788197 2.3319762574 
H 10.2151907238 5.8861858049 10.0353303735 
O 12.8168073060 15.1622215207 14.4241552309 
H 13.1136239468 14.9003315529 13.5385718115 
H 12.3420128304 16.0111559655 14.2549290912 
O 1.1636470002 4.1327426505 15.2668413259 
H 8.9139118039 18.7564645656 2.3811619851 
H 12.0092281249 10.6480491595 12.6031017277 
O 13.0521217604 13.2501063304 16.7853705609 
H 13.1296053030 13.1771087826 17.7401664701 
H 12.6667067241 14.1511103566 16.5531602546 
O 9.6019912956 11.6536129106 7.9106711572 
H 7.7204769977 2.7139667174 12.8727821060 
H 10.2206380031 4.4147394875 0.5148680264 
O 1.4645851487 6.1968809918 19.7657132408 
H 1.8198318706 6.1723482083 0.7217464814 
H 2.1847795561 6.0014398207 19.1262587275 
O 14.6955779374 8.7041314710 9.7712975422 
H 17.9663487211 5.1449753133 9.4923447731 
H 15.3139442703 8.3905324035 9.1081713961 
O 7.3644011678 6.6463416133 8.8736179585 
H 8.2482422589 6.7581309993 9.1706949473 
H 7.2759629865 5.6801504765 8.7425027472 
O 14.2976461748 6.3375089152 18.9511246930 
H 0.6880654730 4.1306598673 14.4104168721 
H 14.2313976458 7.1886262770 19.3876480262 
O 12.6706119427 10.7688105349 11.9378527448 
H 15.2474153666 6.2471281379 18.7499158144 
H 13.4561416587 10.3388960332 12.2855774149 
O 1.6998976005 8.9904941421 0.0362117904 
H 1.5791041823 8.0440694195 19.9202397371 
H 1.8172884718 9.1351674714 1.0142393444 
O 8.5887973482 14.0908898830 17.1078214572 
H 9.2243466429 13.3700466085 17.3116137882 
H 8.7133838351 14.4968123237 16.2601687253 
O 18.3465567992 12.2142020348 14.7432816847 
H 1.6487091966 16.2364570389 13.0188372819 
H 18.8848160838 12.9722350065 14.9689232131 
O 7.6009172281 18.3293538106 17.8390586212 
H 6.9821904135 19.0054973521 17.5901459953 
H 8.1432819988 18.2206285192 17.0706718136 
O 5.5302501623 1.7585820215 0.2998727247 
H 6.3889776938 1.3329031800 0.1367641601 
H 4.8951014028 1.0643783459 0.4711335834 
O 18.2759224094 1.1316041809 8.3747112615 
H 14.4228334646 1.0051992640 8.1511525163 
H 19.0408445872 1.5096673928 7.9458381514 
O 6.2776288966 17.8129236967 4.5216623702 
H 6.3417345620 16.9196500007 4.7253345406 
H 5.4134941394 18.1576844060 4.8513229009 
O 10.5103851970 0.4064771820 11.3951074656 
H 11.4240861903 0.0952176409 11.2138252152 
H 10.0070125320 0.7616217674 10.6429823887 
O 8.6544250475 16.4449356322 7.2409562064 
H 9.2874910238 16.5595688184 7.9537887760 
H 15.3407601047 7.9155777139 11.0952868104 
O 14.5432944385 4.9576449808 8.4080157668 
H 14.1402358248 4.7606617489 9.2524842437 
H 7.9716526478 14.9267468521 7.8154839570 
O 2.2463418227 14.3953767737 1.5748384820 
H 2.2096527946 14.4034475589 2.5396537802 
H 19.0362985122 14.8204447990 5.4030601963 
O 8.8854537749 3.5180612419 4.6129844053 
H 19.8526293883 2.5061490073 17.7837647311 
H 9.5558496357 2.8324049884 4.7129980552 
O 4.9992205389 8.2040632218 6.2369745695 
H 5.8638960187 8.6415077860 5.9539363410 
H 4.6565826664 8.6792181790 6.9701343027 
O 11.6321642484 8.5982700066 0.5287826207 
H 12.4679210837 8.6035370451 0.0548238620 
H 0.9196168989 19.0641156847 1.8518266257 
O 10.7597784652 9.2240061880 13.8281187377 
H 10.8202392599 8.3281690664 13.4275634692 
H 6.2647116350 15.1619811996 8.8702334357 
O 11.2176703535 1.2662581211 8.6401659929 
H 15.4788846828 7.9648034951 4.2501595566 
H 11.7562700930 1.8281189448 9.1786856254 
O 4.3802133496 14.5311381939 18.8932673774 
H 4.9437664347 14.1545950132 18.2193868600 
H 9.3450078845 0.8882890349 14.8114127293 
O 15.9281850902 4.2529633033 14.8844903841 
H 16.3160033379 4.0512337289 15.7803875860 
H 14.9763130883 4.4746195061 15.0285829373 
O 8.4929292381 1.6038852977 9.8483605227 
H 7.9029007735 1.6258606638 9.0740457935 
H 6.4406267132 13.8978318965 4.2823625901 
O 6.2886636425 0.3083800933 16.3564573974 
H 6.9819300656 0.9766551200 16.1217437457 
H 5.4057838360 0.7410262453 16.4040810376 
O 7.4976592428 2.5930851815 2.3683448574 
H 7.4694815885 2.2411949449 1.4838048323 
H 6.8550004475 3.3007308197 2.3719496745 
O 3.7447241352 5.8046368296 17.9974703093 
H 7.3587936745 17.3337834138 19.2873940552 
H 4.4951068837 6.3612606550 18.3653419021 
O 8.9516422236 9.4569574845 10.0370126216 
H 5.9592033794 12.6650645296 16.9246566912 
H 9.2398073033 9.7743215833 10.8889110271 
O 3.2339816217 19.5443974930 7.9483414967 
H 3.1132202463 0.4601028428 8.2468403856 
H 16.9548770752 15.5327166193 14.3444687445 
O 17.0091295737 5.3712977517 12.8055722924 
H 16.5987011115 4.9208157653 13.5971901441 
H 16.7472195792 6.3089707792 12.7629553427 
O 19.1135817871 10.8840845775 4.2516415370 
H 18.9519858438 10.0201701146 3.8145975081 
H 3.1569987483 4.2427296279 5.1618979273 
O 5.8543232264 4.8224242832 2.6019169836 
H 16.3127590025 15.4982105082 10.3120000917 
H 6.3265943299 5.4468587250 3.1736009340 
O 2.6354618100 13.1290245268 15.2766944928 
H 10.8078426942 16.1641203743 17.0750176210 
H 2.6019370103 13.0181163184 16.2649751482 
O 10.4329817615 9.1122768823 5.2942748247 
H 5.6711384336 2.2775234913 10.7877758786 
H 14.0847616938 0.1635571641 12.3952439641 
O 3.3930942465 16.0713964658 12.9440172987 
H 3.5094297074 15.3303261617 12.3395495387 
H 3.9201986245 15.9818367858 13.7097004935 
O 6.9524306450 14.9527616161 13.2498660093 
H 9.3622909802 11.3910220061 8.7961744696 
H 6.1689036052 14.4855372567 13.5413555314 
O 19.5403921406 3.2555904980 17.2122009412 
H 0.2484279783 3.4870197606 16.5623925919 
H 5.5556040431 3.2095489720 13.9729923346 
O 2.8206092255 7.5548957288 4.9192536779 
H 3.6071603064 7.9343427900 5.3773858873 
H 13.1144450441 5.1820248232 16.0112761261 
O 17.7228032673 15.3198721919 11.2754275353 
H 18.5420179972 4.8884324910 13.2591784536 
H 18.3303551487 14.5140954194 11.2945731199 
O 0.1804707660 2.8901221167 11.2231576863 
H 9.8308571327 8.7893253169 5.9592434329 
H 0.2478231701 3.0529396925 10.2426674414 
O 16.3322850955 0.6158309448 17.6927831510 
H 16.4467981211 0.0063314208 16.9393363078 
H 11.2553006395 9.4123578854 5.6780676933 
O 9.8972458490 6.7183378230 10.3302644988 
H 0.1834028842 5.7190624753 18.8090548428 
H 0.4018149518 15.3635305332 13.0987440626 
O 14.1374120513 7.2854756985 7.2337866255 
H 14.4771660701 6.4061005753 7.5890213314 
H 14.6283881506 7.3329190978 6.4001326002 
O 13.4471696693 0.2261021439 18.1647338263 
H 13.4076168142 1.1767004437 18.1987392683 
H 14.3864047843 0.1463992357 18.0984252170 
O 19.8587175239 2.5511491417 6.2723017778 
H 0.8214517192 2.6934793398 6.0120540046 
H 19.4430821036 3.4342692693 6.2206727852 
O 12.7567069929 9.0480310295 15.7425169789 
H 8.5678894086 0.3698682609 0.7348199517 
H 12.7336361630 8.0760321318 15.9650343324 
O 2.9388272021 12.1280869579 9.7214709582 
H 3.4709783242 11.5309089393 10.3113392086 
H 2.9792612348 2.9691877734 1.6853621766 
O 6.5833975001 14.8708321324 4.3595457311 
H 7.4784135244 15.0327084503 4.0775088407 